# Solution for model GasLib-40
# Objective value = 5.3094188700955769e+01
loadshed[innode_1] 0
loadshed[innode_2] 0
loadshed[innode_3] 0
loadshed[innode_4] 0
loadshed[innode_5] 0
loadshed[innode_6] 0
loadshed[innode_7] 0
loadshed[innode_8] 0
loadshed[source_1] -1.1072215661462970e-01
loadshed[source_2] 5.0207251845163281e-02
loadshed[source_3] 3.9636217790518868e-01
loadshed[sink_1] 3.8183682312719691e-01
loadshed[sink_2] 0
loadshed[sink_3] 0
loadshed[sink_4] 0
loadshed[sink_5] 0
loadshed[sink_6] 0
loadshed[sink_7] 0
loadshed[sink_8] 0
loadshed[sink_9] 0
loadshed[sink_10] 0
loadshed[sink_11] 0
loadshed[sink_12] 1
loadshed[sink_13] 0
loadshed[sink_14] 0
loadshed[sink_15] 0
loadshed[sink_16] 0
loadshed[sink_17] 0
loadshed[sink_18] 0
loadshed[sink_19] 0
loadshed[sink_20] 0
loadshed[sink_21] 1
loadshed[sink_22] 0
loadshed[sink_23] 0
loadshed[sink_24] 8.6468681718602158e-01
loadshed[sink_25] 0
loadshed[sink_26] 0
loadshed[sink_27] 0
loadshed[sink_28] 0
loadshed[sink_29] 0
flow[source_1,sink_3] 1.7559437427313918e+02
flow[innode_1,sink_16] 1.6354166666666970e+01
flow[innode_6,sink_13] 1.9049895694538737e+01
flow[sink_13,sink_14] 2.6957290278720691e+00
flow[sink_14,sink_10] -1.3658437638794567e+01
flow[sink_25,sink_26] 1.1593375561598067e+02
flow[sink_26,sink_9] 0
flow[sink_9,sink_18] -1.6354166666669244e+01
flow[sink_26,sink_4] 9.9579588949314029e+01
flow[sink_4,sink_20] 0
flow[sink_18,sink_6] -3.2708333333335915e+01
flow[sink_25,innode_8] -1.4288604093980280e+02
flow[sink_6,sink_7] -7.5526210288443167e+01
flow[sink_6,sink_22] 2.6463710288440637e+01
flow[sink_7,sink_24] 2.2129343439369391e+00
flow[sink_22,sink_1] 1.0109543621773968e+01
flow[sink_24,sink_21] 0
flow[sink_21,sink_12] 0
flow[sink_7,sink_5] -94.0933112990468
flow[sink_5,sink_17] -1.1044747796571347e+02
flow[sink_17,sink_4] -8.3225422282647472e+01
flow[sink_17,sink_8] -4.3576222349732646e+01
flow[sink_3,sink_23] 16.3541666666697
flow[sink_8,sink_20] -5.9930389016399317e+01
flow[sink_25,sink_20] 7.6284555683065861e+01
flow[sink_25,sink_15] -8.4736332720449184e+01
flow[sink_15,sink_29] -5.7089031150582635e+01
flow[sink_29,sink_28] 1.6354166666667879e+01
flow[sink_29,sink_2] 6.0355634903199885e+01
flow[sink_2,sink_15] 4.4001468236533213e+01
flow[sink_29,innode_7] -1.5015299938711706e+02
flow[innode_4,sink_19] 9.5429270972141524e+01
flow[sink_19,innode_3] 3.0607552822798183e+01
flow[innode_4,innode_5] 0
flow[sink_27,innode_5] 0
flow[sink_27,sink_19] -1.6354166666679703e+01
flow[sink_10,sink_11] 3.2708333333333641e+01
flow[sink_10,innode_2] -3.2113384815996959e+01
flow[sink_10,innode_3] -3.0607552822798183e+01
flow[innode_6,sink_25] -1.9049895694538737e+01
flow[sink_11,innode_1] 1.6354166666666970e+01
flow[sink_19,innode_2] 3.2113384815996959e+01
flow[source_3,innode_4] 9.5429270972141524e+01
flow[source_2,innode_7] 1.5015299938711706e+02
flow[sink_3,innode_8] 1.4288604093980280e+02
pressure[innode_1] 75.2981407499981
pressure[innode_2] 7.7147167077750254e+01
pressure[innode_3] 7.7079390117953537e+01
pressure[innode_4] 81.01325
pressure[innode_5] 81.01325
pressure[innode_6] 7.4913660263878626e+01
pressure[innode_7] 81.01325
pressure[innode_8] 8.0426305086287229e+01
pressure[source_1] 81.01325
pressure[source_2] 81.01325
pressure[source_3] 81.01325
pressure[sink_1] 1.0132500000000002e+00
pressure[sink_2] 7.5468369142530463e+01
pressure[sink_3] 8.0426305086287229e+01
pressure[sink_4] 54.0877072774669
pressure[sink_5] 4.2679567294026263e+01
pressure[sink_6] 2.5101000955115653e+00
pressure[sink_7] 3.5468949355339210e+00
pressure[sink_8] 5.2551350142668419e+01
pressure[sink_9] 1.0449477162053276e+00
pressure[sink_10] 7.5449842057601643e+01
pressure[sink_11] 75.2981407499981
pressure[sink_12] 1.01325
pressure[sink_13] 7.4808641372447937e+01
pressure[sink_14] 7.4803817135727229e+01
pressure[sink_15] 7.5324714046505576e+01
pressure[sink_16] 7.4276490915180418e+01
pressure[sink_17] 5.0907106065171163e+01
pressure[sink_18] 1.6366902100050820e+00
pressure[sink_19] 7.7147167077750254e+01
pressure[sink_20] 5.6727655439807087e+01
pressure[sink_21] 1.01325
pressure[sink_22] 1.6708329124974182e+00
pressure[sink_23] 8.0261587074627442e+01
pressure[sink_24] 1.01325
pressure[sink_25] 7.4913660263878626e+01
pressure[sink_26] 6.6748513939964113e+01
pressure[sink_27] 7.6796037080606752e+01
pressure[sink_28] 7.6701963216476727e+01
pressure[sink_29] 76.9972454900939
interdiction[source_1,sink_3] 0
interdiction[innode_1,sink_16] 0
interdiction[innode_6,sink_13] 0
interdiction[sink_13,sink_14] 0
interdiction[sink_14,sink_10] 0
interdiction[sink_25,sink_26] 0
interdiction[sink_26,sink_9] 1
interdiction[sink_9,sink_18] 0
interdiction[sink_26,sink_4] 0
interdiction[sink_4,sink_20] 1
interdiction[sink_18,sink_6] 0
interdiction[sink_25,innode_8] 0
interdiction[sink_6,sink_7] 0
interdiction[sink_6,sink_22] 0
interdiction[sink_7,sink_24] 0
interdiction[sink_22,sink_1] 0
interdiction[sink_24,sink_21] 0
interdiction[sink_21,sink_12] 0
interdiction[sink_7,sink_5] 0
interdiction[sink_5,sink_17] 0
interdiction[sink_17,sink_4] 0
interdiction[sink_17,sink_8] 0
interdiction[sink_3,sink_23] 0
interdiction[sink_8,sink_20] 0
interdiction[sink_25,sink_20] 0
interdiction[sink_25,sink_15] 0
interdiction[sink_15,sink_29] 0
interdiction[sink_29,sink_28] 0
interdiction[sink_29,sink_2] 0
interdiction[sink_2,sink_15] 0
interdiction[sink_29,innode_7] 0
interdiction[innode_4,sink_19] 0
interdiction[sink_19,innode_3] 0
interdiction[innode_4,innode_5] 0
interdiction[sink_27,innode_5] 1
interdiction[sink_27,sink_19] 0
interdiction[sink_10,sink_11] 0
interdiction[sink_10,innode_2] 0
interdiction[sink_10,innode_3] 0
interdiction[innode_6,sink_25] 0
interdiction[sink_11,innode_1] 0
interdiction[sink_19,innode_2] 0
interdiction[source_3,innode_4] 0
interdiction[source_2,innode_7] 0
interdiction[sink_3,innode_8] 0
WCcheckFlow[source_1,sink_3] 39
WCcheckFlow[innode_1,sink_16] 1
WCcheckFlow[innode_6,sink_13] 13
WCcheckFlow[sink_13,sink_14] 12
WCcheckFlow[sink_14,sink_10] 11
WCcheckFlow[sink_25,sink_26] 15
WCcheckFlow[sink_26,sink_9] 0
WCcheckFlow[sink_9,sink_18] -1
WCcheckFlow[sink_26,sink_4] 14
WCcheckFlow[sink_4,sink_20] 0
WCcheckFlow[sink_18,sink_6] -2
WCcheckFlow[sink_25,innode_8] -36
WCcheckFlow[sink_6,sink_7] -5
WCcheckFlow[sink_6,sink_22] 2
WCcheckFlow[sink_7,sink_24] 3
WCcheckFlow[sink_22,sink_1] 1
WCcheckFlow[sink_24,sink_21] 2
WCcheckFlow[sink_21,sink_12] 1
WCcheckFlow[sink_7,sink_5] -9
WCcheckFlow[sink_5,sink_17] -10
WCcheckFlow[sink_17,sink_4] -13
WCcheckFlow[sink_17,sink_8] 2
WCcheckFlow[sink_3,sink_23] 1
WCcheckFlow[sink_8,sink_20] 1
WCcheckFlow[sink_25,sink_20] 0
WCcheckFlow[sink_25,sink_15] 6
WCcheckFlow[sink_15,sink_29] 5
WCcheckFlow[sink_29,sink_28] 1
WCcheckFlow[sink_29,sink_2] 1
WCcheckFlow[sink_2,sink_15] 0
WCcheckFlow[sink_29,innode_7] 2
WCcheckFlow[innode_4,sink_19] -3
WCcheckFlow[sink_19,innode_3] -5
WCcheckFlow[innode_4,innode_5] 1
WCcheckFlow[sink_27,innode_5] 0
WCcheckFlow[sink_27,sink_19] -1
WCcheckFlow[sink_10,sink_11] 3
WCcheckFlow[sink_10,innode_2] 1
WCcheckFlow[sink_10,innode_3] 6
WCcheckFlow[innode_6,sink_25] -14
WCcheckFlow[sink_11,innode_1] 2
WCcheckFlow[sink_19,innode_2] 0
WCcheckFlow[source_3,innode_4] -1
WCcheckFlow[source_2,innode_7] -1
WCcheckFlow[sink_3,innode_8] 37
